NPROCS=0
This instance is clustered!
Gurobi Optimizer version 9.0.0 build v9.0.0rc2 (linux64)
Optimize a model with 34 rows, 290 columns and 578 nonzeros
Model fingerprint: 0x7462f5e5
Variable types: 1 continuous, 289 integer (289 binary)
Coefficient statistics:
  Matrix range     [1e+00, 1e+00]
  Objective range  [1e+00, 2e+02]
  Bounds range     [1e+00, 1e+00]
  RHS range        [1e+00, 1e+00]
Presolve removed 2 rows and 48 columns
Presolve time: 0.00s
Presolved: 32 rows, 242 columns, 482 nonzeros
Variable types: 1 continuous, 241 integer (241 binary)

Root relaxation: objective 5.192746e+02, 31 iterations, 0.00 seconds

    Nodes    |    Current Node    |     Objective Bounds      |     Work
 Expl Unexpl |  Obj  Depth IntInf | Incumbent    BestBd   Gap | It/Node Time

     0     0  591.61355    0   14          -  591.61355      -     -    0s
     0     0  617.51405    0   34          -  617.51405      -     -    0s
     0     0  622.08841    0   21          -  622.08841      -     -    0s
     0     0  622.08841    0   21          -  622.08841      -     -    0s
     0     2  622.08841    0   21          -  622.08841      -     -    0s
*  616   541              24     824.0830472  643.00458  22.0%   5.4    0s
*  736   610              52     796.0937173  644.91048  19.0%   5.4    0s
* 2084  1389              56     777.4999541  661.11448  15.0%   5.6    0s
* 2503  1614              56     776.6420463  665.56032  14.3%   5.5    0s
H 2891  1561                     770.4572138  667.50880  13.4%   5.6    0s
H 2895  1486                     745.4860421  667.50880  10.5%   5.6    0s
H 3959  1641                     744.6281343  667.50880  10.4%   6.1    1s
H11361  2297                     744.6281088  706.27966  5.15%   7.3    3s

Cutting planes:
  Gomory: 3
  MIR: 1
  Zero half: 6
  Lazy constraints: 283

Explored 18911 nodes (156933 simplex iterations) in 4.23 seconds
Thread count was 12 (of 12 available processors)

Solution count 7: 744.628 745.486 770.457 ... 824.083

Optimal solution found (tolerance 1.00e-04)
Best objective 7.446281087689e+02, best bound 7.446281087689e+02, gap 0.0000%

User-callback calls 40412, time in user-callback 0.06 sec
/projects/academic/josewalt/caigao/RRARP_BD/BendersDecomp/ret/model_outs/n_15_m_3_algo_3.out
 =====>>>>> Solution is written to file in <../ret/model_outs> !!!
===>> All Done!
